c nIsolatedPIs 0
c maxPI 32
p cnf 218 559
c gate 33 -14 -30 0
-14 -33 0
-30 -33 0
14 30 33 0
c gate 34 14 30 0
14 -34 0
30 -34 0
-14 -30 34 0
c gate 35 -33 -34 0
-33 -35 0
-34 -35 0
33 34 35 0
c gate 36 12 28 0
12 -36 0
28 -36 0
-12 -28 36 0
c gate 37 13 29 0
13 -37 0
29 -37 0
-13 -29 37 0
c gate 38 -36 -37 0
-36 -38 0
-37 -38 0
36 37 38 0
c gate 39 35 -38 0
35 -39 0
-38 -39 0
-35 38 39 0
c gate 40 -35 38 0
-35 -40 0
38 -40 0
35 -38 40 0
c gate 41 -39 -40 0
-39 -41 0
-40 -41 0
39 40 41 0
c gate 42 -13 -29 0
-13 -42 0
-29 -42 0
13 29 42 0
c gate 43 -12 -28 0
-12 -43 0
-28 -43 0
12 28 43 0
c gate 44 -36 -43 0
-36 -44 0
-43 -44 0
36 43 44 0
c gate 45 -11 -27 0
-11 -45 0
-27 -45 0
11 27 45 0
c gate 46 -10 -26 0
-10 -46 0
-26 -46 0
10 26 46 0
c gate 47 9 25 0
9 -47 0
25 -47 0
-9 -25 47 0
c gate 48 -2 -18 0
-2 -48 0
-18 -48 0
2 18 48 0
c gate 49 1 17 0
1 -49 0
17 -49 0
-1 -17 49 0
c gate 50 -48 49 0
-48 -50 0
49 -50 0
48 -49 50 0
c gate 51 3 19 0
3 -51 0
19 -51 0
-3 -19 51 0
c gate 52 2 18 0
2 -52 0
18 -52 0
-2 -18 52 0
c gate 53 -51 -52 0
-51 -53 0
-52 -53 0
51 52 53 0
c gate 54 -50 53 0
-50 -54 0
53 -54 0
50 -53 54 0
c gate 55 -4 -20 0
-4 -55 0
-20 -55 0
4 20 55 0
c gate 56 -3 -19 0
-3 -56 0
-19 -56 0
3 19 56 0
c gate 57 -55 -56 0
-55 -57 0
-56 -57 0
55 56 57 0
c gate 58 -54 57 0
-54 -58 0
57 -58 0
54 -57 58 0
c gate 59 4 20 0
4 -59 0
20 -59 0
-4 -20 59 0
c gate 60 5 21 0
5 -60 0
21 -60 0
-5 -21 60 0
c gate 61 -59 -60 0
-59 -61 0
-60 -61 0
59 60 61 0
c gate 62 -58 61 0
-58 -62 0
61 -62 0
58 -61 62 0
c gate 63 -5 -21 0
-5 -63 0
-21 -63 0
5 21 63 0
c gate 64 -6 -22 0
-6 -64 0
-22 -64 0
6 22 64 0
c gate 65 -63 -64 0
-63 -65 0
-64 -65 0
63 64 65 0
c gate 66 -62 65 0
-62 -66 0
65 -66 0
62 -65 66 0
c gate 67 6 22 0
6 -67 0
22 -67 0
-6 -22 67 0
c gate 68 7 -23 0
7 -68 0
-23 -68 0
-7 23 68 0
c gate 69 -7 23 0
-7 -69 0
23 -69 0
7 -23 69 0
c gate 70 -68 -69 0
-68 -70 0
-69 -70 0
68 69 70 0
c gate 71 -67 -70 0
-67 -71 0
-70 -71 0
67 70 71 0
c gate 72 -66 71 0
-66 -72 0
71 -72 0
66 -71 72 0
c gate 73 8 24 0
8 -73 0
24 -73 0
-8 -24 73 0
c gate 74 -8 -24 0
-8 -74 0
-24 -74 0
8 24 74 0
c gate 75 -73 -74 0
-73 -75 0
-74 -75 0
73 74 75 0
c gate 76 72 75 0
72 -76 0
75 -76 0
-72 -75 76 0
c gate 77 -7 -23 0
-7 -77 0
-23 -77 0
7 23 77 0
c gate 78 -73 77 0
-73 -78 0
77 -78 0
73 -77 78 0
c gate 79 -9 -25 0
-9 -79 0
-25 -79 0
9 25 79 0
c gate 80 -74 -79 0
-74 -80 0
-79 -80 0
74 79 80 0
c gate 81 -78 80 0
-78 -81 0
80 -81 0
78 -80 81 0
c gate 82 -76 81 0
-76 -82 0
81 -82 0
76 -81 82 0
c gate 83 -47 -82 0
-47 -83 0
-82 -83 0
47 82 83 0
c gate 84 -46 -83 0
-46 -84 0
-83 -84 0
46 83 84 0
c gate 85 11 27 0
11 -85 0
27 -85 0
-11 -27 85 0
c gate 86 10 26 0
10 -86 0
26 -86 0
-10 -26 86 0
c gate 87 -85 -86 0
-85 -87 0
-86 -87 0
85 86 87 0
c gate 88 -84 87 0
-84 -88 0
87 -88 0
84 -87 88 0
c gate 89 -45 -88 0
-45 -89 0
-88 -89 0
45 88 89 0
c gate 90 44 89 0
44 -90 0
89 -90 0
-44 -89 90 0
c gate 91 38 -90 0
38 -91 0
-90 -91 0
-38 90 91 0
c gate 92 -42 -91 0
-42 -92 0
-91 -92 0
42 91 92 0
c gate 93 35 -92 0
35 -93 0
-92 -93 0
-35 92 93 0
c gate 94 -35 92 0
-35 -94 0
92 -94 0
35 -92 94 0
c gate 95 -93 -94 0
-93 -95 0
-94 -95 0
93 94 95 0
c gate 96 41 95 0
41 -96 0
95 -96 0
-41 -95 96 0
c gate 97 -41 -95 0
-41 -97 0
-95 -97 0
41 95 97 0
c gate 98 -96 -97 0
-96 -98 0
-97 -98 0
96 97 98 0
c gate 99 -47 -86 0
-47 -99 0
-86 -99 0
47 86 99 0
c gate 100 -81 99 0
-81 -100 0
99 -100 0
81 -99 100 0
c gate 101 -45 -46 0
-45 -101 0
-46 -101 0
45 46 101 0
c gate 102 -100 101 0
-100 -102 0
101 -102 0
100 -101 102 0
c gate 103 -85 -102 0
-85 -103 0
-102 -103 0
85 102 103 0
c gate 104 -44 89 0
-44 -104 0
89 -104 0
44 -89 104 0
c gate 105 103 -104 0
103 -105 0
-104 -105 0
-103 104 105 0
c gate 106 44 -89 0
44 -106 0
-89 -106 0
-44 89 106 0
c gate 107 -103 -106 0
-103 -107 0
-106 -107 0
103 106 107 0
c gate 108 -105 -107 0
-105 -108 0
-107 -108 0
105 107 108 0
c gate 109 98 108 0
98 -109 0
108 -109 0
-98 -108 109 0
c gate 110 15 31 0
15 -110 0
31 -110 0
-15 -31 110 0
c gate 111 -15 -31 0
-15 -111 0
-31 -111 0
15 31 111 0
c gate 112 -110 -111 0
-110 -112 0
-111 -112 0
110 111 112 0
c gate 113 -34 -39 0
-34 -113 0
-39 -113 0
34 39 113 0
c gate 114 112 -113 0
112 -114 0
-113 -114 0
-112 113 114 0
c gate 115 -110 -114 0
-110 -115 0
-114 -115 0
110 114 115 0
c gate 116 16 -32 0
16 -116 0
-32 -116 0
-16 32 116 0
c gate 117 -16 32 0
-16 -117 0
32 -117 0
16 -32 117 0
c gate 118 -116 -117 0
-116 -118 0
-117 -118 0
116 117 118 0
c gate 119 115 -118 0
115 -119 0
-118 -119 0
-115 118 119 0
c gate 120 -115 118 0
-115 -120 0
118 -120 0
115 -118 120 0
c gate 121 -119 -120 0
-119 -121 0
-120 -121 0
119 120 121 0
c gate 122 -33 -93 0
-33 -122 0
-93 -122 0
33 93 122 0
c gate 123 112 -122 0
112 -123 0
-122 -123 0
-112 122 123 0
c gate 124 -111 -123 0
-111 -124 0
-123 -124 0
111 123 124 0
c gate 125 118 124 0
118 -125 0
124 -125 0
-118 -124 125 0
c gate 126 -118 -124 0
-118 -126 0
-124 -126 0
118 124 126 0
c gate 127 -125 -126 0
-125 -127 0
-126 -127 0
125 126 127 0
c gate 128 -121 127 0
-121 -128 0
127 -128 0
121 -127 128 0
c gate 129 121 -127 0
121 -129 0
-127 -129 0
-121 127 129 0
c gate 130 -112 113 0
-112 -130 0
113 -130 0
112 -113 130 0
c gate 131 -114 -130 0
-114 -131 0
-130 -131 0
114 130 131 0
c gate 132 -112 122 0
-112 -132 0
122 -132 0
112 -122 132 0
c gate 133 -123 -132 0
-123 -133 0
-132 -133 0
123 132 133 0
c gate 134 -131 -133 0
-131 -134 0
-133 -134 0
131 133 134 0
c gate 135 131 133 0
131 -135 0
133 -135 0
-131 -133 135 0
c gate 136 -37 -42 0
-37 -136 0
-42 -136 0
37 42 136 0
c gate 137 90 -136 0
90 -137 0
-136 -137 0
-90 136 137 0
c gate 138 -97 -137 0
-97 -138 0
-137 -138 0
97 137 138 0
c gate 139 -135 -138 0
-135 -139 0
-138 -139 0
135 138 139 0
c gate 140 -134 -139 0
-134 -140 0
-139 -140 0
134 139 140 0
c gate 141 -129 140 0
-129 -141 0
140 -141 0
129 -140 141 0
c gate 142 -128 -141 0
-128 -142 0
-141 -142 0
128 141 142 0
c gate 143 -109 -142 0
-109 -143 0
-142 -143 0
109 142 143 0
c gate 144 -76 -90 0
-76 -144 0
-90 -144 0
76 90 144 0
c gate 145 98 144 0
98 -145 0
144 -145 0
-98 -144 145 0
c gate 146 -143 -145 0
-143 -146 0
-145 -146 0
143 145 146 0
c gate 147 -45 -85 0
-45 -147 0
-85 -147 0
45 85 147 0
c gate 148 10 -26 0
10 -148 0
-26 -148 0
-10 26 148 0
c gate 149 8 -24 0
8 -149 0
-24 -149 0
-8 24 149 0
c gate 150 -47 -79 0
-47 -150 0
-79 -150 0
47 79 150 0
c gate 151 -149 -150 0
-149 -151 0
-150 -151 0
149 150 151 0
c gate 152 -10 26 0
-10 -152 0
26 -152 0
10 -26 152 0
c gate 153 -9 25 0
-9 -153 0
25 -153 0
9 -25 153 0
c gate 154 -152 -153 0
-152 -154 0
-153 -154 0
152 153 154 0
c gate 155 -151 154 0
-151 -155 0
154 -155 0
151 -154 155 0
c gate 156 -148 -155 0
-148 -156 0
-155 -156 0
148 155 156 0
c gate 157 -2 18 0
-2 -157 0
18 -157 0
2 -18 157 0
c gate 158 -1 17 0
-1 -158 0
17 -158 0
1 -17 158 0
c gate 159 -157 -158 0
-157 -159 0
-158 -159 0
157 158 159 0
c gate 160 2 -18 0
2 -160 0
-18 -160 0
-2 18 160 0
c gate 161 3 -19 0
3 -161 0
-19 -161 0
-3 19 161 0
c gate 162 -160 -161 0
-160 -162 0
-161 -162 0
160 161 162 0
c gate 163 -159 162 0
-159 -163 0
162 -163 0
159 -162 163 0
c gate 164 -4 20 0
-4 -164 0
20 -164 0
4 -20 164 0
c gate 165 -3 19 0
-3 -165 0
19 -165 0
3 -19 165 0
c gate 166 -164 -165 0
-164 -166 0
-165 -166 0
164 165 166 0
c gate 167 -163 166 0
-163 -167 0
166 -167 0
163 -166 167 0
c gate 168 5 -21 0
5 -168 0
-21 -168 0
-5 21 168 0
c gate 169 4 -20 0
4 -169 0
-20 -169 0
-4 20 169 0
c gate 170 -168 -169 0
-168 -170 0
-169 -170 0
168 169 170 0
c gate 171 -167 170 0
-167 -171 0
170 -171 0
167 -170 171 0
c gate 172 -64 -67 0
-64 -172 0
-67 -172 0
64 67 172 0
c gate 173 -5 21 0
-5 -173 0
21 -173 0
5 -21 173 0
c gate 174 -172 -173 0
-172 -174 0
-173 -174 0
172 173 174 0
c gate 175 -171 174 0
-171 -175 0
174 -175 0
171 -174 175 0
c gate 176 -69 175 0
-69 -176 0
175 -176 0
69 -175 176 0
c gate 177 6 -22 0
6 -177 0
-22 -177 0
-6 22 177 0
c gate 178 -69 177 0
-69 -178 0
177 -178 0
69 -177 178 0
c gate 179 -68 -178 0
-68 -179 0
-178 -179 0
68 178 179 0
c gate 180 -176 179 0
-176 -180 0
179 -180 0
176 -179 180 0
c gate 181 -75 -180 0
-75 -181 0
-180 -181 0
75 180 181 0
c gate 182 154 181 0
154 -182 0
181 -182 0
-154 -181 182 0
c gate 183 156 -182 0
156 -183 0
-182 -183 0
-156 182 183 0
c gate 184 -147 183 0
-147 -184 0
183 -184 0
147 -183 184 0
c gate 185 119 124 0
119 -185 0
124 -185 0
-119 -124 185 0
c gate 186 -175 -185 0
-175 -186 0
-185 -186 0
175 185 186 0
c gate 187 146 186 0
146 -187 0
186 -187 0
-146 -186 187 0
c gate 188 -70 175 0
-70 -188 0
175 -188 0
70 -175 188 0
c gate 189 -118 -175 0
-118 -189 0
-175 -189 0
118 175 189 0
c gate 190 129 189 0
129 -190 0
189 -190 0
-129 -189 190 0
c gate 191 -188 -190 0
-188 -191 0
-190 -191 0
188 190 191 0
c gate 192 -187 191 0
-187 -192 0
191 -192 0
187 -191 192 0
c gate 193 75 179 0
75 -193 0
179 -193 0
-75 -179 193 0
c gate 194 -180 193 0
-180 -194 0
193 -194 0
180 -193 194 0
c gate 195 192 -194 0
192 -195 0
-194 -195 0
-192 194 195 0
c gate 196 -181 -195 0
-181 -196 0
-195 -196 0
181 195 196 0
c gate 197 -148 -152 0
-148 -197 0
-152 -197 0
148 152 197 0
c gate 198 -150 197 0
-150 -198 0
197 -198 0
150 -197 198 0
c gate 199 181 -198 0
181 -199 0
-198 -199 0
-181 198 199 0
c gate 200 -196 -199 0
-196 -200 0
-199 -200 0
196 199 200 0
c gate 201 147 -183 0
147 -201 0
-183 -201 0
-147 183 201 0
c gate 202 -184 -201 0
-184 -202 0
-201 -202 0
184 201 202 0
c gate 203 156 -202 0
156 -203 0
-202 -203 0
-156 202 203 0
c gate 204 200 -203 0
200 -204 0
-203 -204 0
-200 203 204 0
c gate 205 -184 -204 0
-184 -205 0
-204 -205 0
184 204 205 0
c gate 206 -35 -112 0
-35 -206 0
-112 -206 0
35 112 206 0
c gate 207 -44 118 0
-44 -207 0
118 -207 0
44 -118 207 0
c gate 208 -136 207 0
-136 -208 0
207 -208 0
136 -207 208 0
c gate 209 206 208 0
206 -209 0
208 -209 0
-206 -208 209 0
c gate 210 184 209 0
184 -210 0
209 -210 0
-184 -209 210 0
c gate 211 -205 -210 0
-205 -211 0
-210 -211 0
205 210 211 0
c gate 212 -146 211 0
-146 -212 0
211 -212 0
146 -211 212 0
c gate 213 72 -108 0
72 -213 0
-108 -213 0
-72 108 213 0
c gate 214 -90 -213 0
-90 -214 0
-213 -214 0
90 213 214 0
c gate 215 98 214 0
98 -215 0
214 -215 0
-98 -214 215 0
c gate 216 -142 -215 0
-142 -216 0
-215 -216 0
142 215 216 0
c gate 217 -211 -216 0
-211 -217 0
-216 -217 0
211 216 217 0
c gate 218 -212 -217 0
-212 -218 0
-217 -218 0
212 217 218 0
c PO
218 0
